33
100
69	3
67	2
66	1
65	2
58	1
57	1
56	2
55	2
53	2
52	1
51	1
50	1
49	1
48	1
46	1
45	1
44	1
42	2
39	1
36	2
35	1
34	2
33	4
32	2
31	1
30	2
29	2
28	1
27	2
26	1
22	1
21	1
20	1
